12 40 9 10
5 16 11 7 15 3 13 15 19 16 10 16 15 3 13 20 1 19 7 14 2 4 15 3 12 8 1 15 19 18 4 1 17 4 6 13 13 13 16 3 
3.7 2.45 3.71 4.03 2.27 1.42 4.73 7.55 3.33 5.27 1.14 1.41 4.65 0.5 6.2 5.88 2 5.88 5.63 2.86 0.76 1.19 0.3 7.95 0.06 3.31 5.96 3.94 0.98 3.96 6.16 5.74 1.91 1.72 7.01 4.88 7.02 4.78 2.42 2.04 
5.61 2.27 4.53 4.47 3.62 6.76 4.39 5.29 1.53 7.38 1.28 1.55 0.72 5.27 0.28 4.74 7 5.91 0.34 6.22 3.2 5.53 4.17 1.14 1.7 7.25 1.73 3.34 2.15 6.04 1.06 3.07 7.48 0.69 2.75 3.99 4.21 3.02 3.67 3.98 
2.24 1.46 6.1 5.22 3.84 6.06 3.08 4.69 2.68 7.53 6.17 3.33 0.36 5.97 2.17 7.96 2.58 2.17 4.79 1.35 0.05 0.98 5.82 3.52 0.46 4.34 7.32 1.89 3.36 0.67 4.85 1.17 2.96 1.09 6.99 5.8 0.54 5.23 5.36 3.85 
3.25 5.45 2.99 1.72 6.05 7.84 3.22 3.29 4.88 1.04 2.86 1.53 0.13 5.7 3.08 6.88 0.96 7.37 0.29 5.58 3.52 1.55 5.22 5.17 5.27 1.8 2.23 1.16 3.97 5.31 3.35 8 7.32 2.26 0.94 5.77 0.59 7.29 0.41 4.2 
4.68 3.69 3.69 6.3 7.49 1.84 3.14 6.17 2.95 1.36 0.41 5.01 7.46 5.56 2.93 3.11 6.63 2.88 0.76 2.39 5.8 1.8 0.96 2.84 4.16 0.52 0.65 2.39 0.14 5.84 3.19 4.89 5.46 5.09 7.69 0.88 4.61 5.32 2.27 2.37 
0.12 0.53 5.39 5.68 6.94 2.74 5.45 5.42 0.66 6.27 6.26 5.65 3.43 2.93 0.86 1.55 5.02 0.89 5.23 5.12 6.27 1.24 2.98 4.79 7.62 4.58 3.61 1.52 5.88 2.95 4.4 3.93 1.16 2.2 0.73 5.7 2.26 7.72 5.66 4.11 
4 7.03 1.28 4.96 0.04 6.22 6.03 0.11 1.07 5.93 4.19 6.38 1.53 1.67 6.97 5.14 2.31 5.46 6.48 0.35 5.82 6.71 6.51 0.01 6.07 1.73 2.22 7.02 2.99 7.65 0.06 3.4 7.87 0.53 2.58 0.93 6.69 4.85 4.56 6.5 
2.7 1.66 6.73 1.77 6.92 1.92 7.61 3.56 6.47 3.51 5.18 7.41 3.56 2.83 0.61 0.24 3.26 3.94 1.43 0.48 7.04 3.4 1.65 5.65 7.58 1.63 0.97 3.4 1.66 5.51 5.9 7.57 0.76 0.81 2.21 4.04 5.9 2.57 3.24 0.53 
0.87 4.67 1.67 3.92 1.46 1.72 1.08 1.74 4.16 4.84 7.95 5.47 1.04 7.5 2.51 6.65 3.06 5.66 0.22 3.98 5.2 7.94 5.99 5.81 1.73 1.99 4.73 4.08 3.38 6.89 2.85 5.55 1.81 1.57 6.94 2.68 7.09 2.58 1.45 0.08 
4 4 4 4 4 4 4 4 4 4 4 4 4 4 4 4 4 4 4 4 4 4 4 4 4 4 4 4 4 4 4 4 4 4 4 4 4 4 4 4 
5.57 3.05 0.48 7.54 6.81 1.42 0.81 6.64 0.88 4.15 4.13 0.94 1.42 3.22 2.65 4.8 3.13 2.37 0 2.45 6.46 5.09 0.69 0.11 3.99 0.21 4.06 0.35 3.8 3.87 5.34 6.61 3.92 0.21 5.19 4.81 0.98 0.61 6.96 0.76 
3.84 2.3 7.49 6.27 3.2 1.37 4.72 7.77 1.54 4.34 7.55 3.96 1.09 0.37 3.35 6.51 0.3 0.18 6.15 0.25 1.05 2.31 1.69 7.78 2.9 4.49 5.06 1.34 5.17 3.56 5.28 3 5.43 2.62 7.01 5.91 1.63 1.24 2.76 4.57 
1 1 1 1 1 1 1 1 1 1 1 1 1 1 1 1 1 1 1 1 1 1 1 1 1 1 1 1 1 1 1 1 1 1 1 1 1 1 1 1 
1 1 1 1 1 1 1 1 1 1 1 1 1 1 1 1 1 1 1 1 1 1 1 1 1 1 1 1 1 1 1 1 1 1 1 1 1 1 1 1 
1 1 1 1 1 1 1 1 1 1 1 1 1 1 1 1 1 1 1 1 1 1 1 1 1 1 1 1 1 1 1 1 1 1 1 1 1 1 1 1 
1 1 1 1 1 1 1 1 1 1 1 1 1 1 1 1 1 1 1 1 1 1 1 1 1 1 1 1 1 1 1 1 1 1 1 1 1 1 1 1 
1 1 1 1 1 1 1 1 1 1 1 1 1 1 1 1 1 1 1 1 1 1 1 1 1 1 1 1 1 1 1 1 1 1 1 1 1 1 1 1 
1 1 1 1 1 1 1 1 1 1 1 1 1 1 1 1 1 1 1 1 1 1 1 1 1 1 1 1 1 1 1 1 1 1 1 1 1 1 1 1 
1 1 1 1 1 1 1 1 1 1 1 1 1 1 1 1 1 1 1 1 1 1 1 1 1 1 1 1 1 1 1 1 1 1 1 1 1 1 1 1 
1 1 1 1 1 1 1 1 1 1 1 1 1 1 1 1 1 1 1 1 1 1 1 1 1 1 1 1 1 1 1 1 1 1 1 1 1 1 1 1 
1 1 1 1 1 1 1 1 1 1 1 1 1 1 1 1 1 1 1 1 1 1 1 1 1 1 1 1 1 1 1 1 1 1 1 1 1 1 1 1 
1 1 1 1 1 1 1 1 1 1 1 1 1 1 1 1 1 1 1 1 1 1 1 1 1 1 1 1 1 1 1 1 1 1 1 1 1 1 1 1 
1 1 1 1 1 1 1 1 1 1 1 1 1 1 1 1 1 1 1 1 1 1 1 1 1 1 1 1 1 1 1 1 1 1 1 1 1 1 1 1 
1 1 1 1 1 1 1 1 1 1 1 1 1 1 1 1 1 1 1 1 1 1 1 1 1 1 1 1 1 1 1 1 1 1 1 1 1 1 1 1 
0.01 0.01 0.01 0.01 0.01 0.01 0.01 0.01 0.01 0.01 0.01 0.01 0.01 0.01 0.01 0.01 0.01 0.01 0.01 0.01 0.01 0.01 0.01 0.01 0.01 0.01 0.01 0.01 0.01 0.01 0.01 0.01 0.01 0.01 0.01 0.01 0.01 0.01 0.01 0.01 
0.02 0.02 0.02 0.02 0.02 0.02 0.02 0.02 0.02 0.02 0.02 0.02 0.02 0.02 0.02 0.02 0.02 0.02 0.02 0.02 0.02 0.02 0.02 0.02 0.02 0.02 0.02 0.02 0.02 0.02 0.02 0.02 0.02 0.02 0.02 0.02 0.02 0.02 0.02 0.02 
0.03 0.03 0.03 0.03 0.03 0.03 0.03 0.03 0.03 0.03 0.03 0.03 0.03 0.03 0.03 0.03 0.03 0.03 0.03 0.03 0.03 0.03 0.03 0.03 0.03 0.03 0.03 0.03 0.03 0.03 0.03 0.03 0.03 0.03 0.03 0.03 0.03 0.03 0.03 0.03 
0.04 0.04 0.04 0.04 0.04 0.04 0.04 0.04 0.04 0.04 0.04 0.04 0.04 0.04 0.04 0.04 0.04 0.04 0.04 0.04 0.04 0.04 0.04 0.04 0.04 0.04 0.04 0.04 0.04 0.04 0.04 0.04 0.04 0.04 0.04 0.04 0.04 0.04 0.04 0.04 
0.05 0.05 0.05 0.05 0.05 0.05 0.05 0.05 0.05 0.05 0.05 0.05 0.05 0.05 0.05 0.05 0.05 0.05 0.05 0.05 0.05 0.05 0.05 0.05 0.05 0.05 0.05 0.05 0.05 0.05 0.05 0.05 0.05 0.05 0.05 0.05 0.05 0.05 0.05 0.05 
0.06 0.06 0.06 0.06 0.06 0.06 0.06 0.06 0.06 0.06 0.06 0.06 0.06 0.06 0.06 0.06 0.06 0.06 0.06 0.06 0.06 0.06 0.06 0.06 0.06 0.06 0.06 0.06 0.06 0.06 0.06 0.06 0.06 0.06 0.06 0.06 0.06 0.06 0.06 0.06 
0.07 0.07 0.07 0.07 0.07 0.07 0.07 0.07 0.07 0.07 0.07 0.07 0.07 0.07 0.07 0.07 0.07 0.07 0.07 0.07 0.07 0.07 0.07 0.07 0.07 0.07 0.07 0.07 0.07 0.07 0.07 0.07 0.07 0.07 0.07 0.07 0.07 0.07 0.07 0.07 
0.08 0.08 0.08 0.08 0.08 0.08 0.08 0.08 0.08 0.08 0.08 0.08 0.08 0.08 0.08 0.08 0.08 0.08 0.08 0.08 0.08 0.08 0.08 0.08 0.08 0.08 0.08 0.08 0.08 0.08 0.08 0.08 0.08 0.08 0.08 0.08 0.08 0.08 0.08 0.08 
0.09 0.09 0.09 0.09 0.09 0.09 0.09 0.09 0.09 0.09 0.09 0.09 0.09 0.09 0.09 0.09 0.09 0.09 0.09 0.09 0.09 0.09 0.09 0.09 0.09 0.09 0.09 0.09 0.09 0.09 0.09 0.09 0.09 0.09 0.09 0.09 0.09 0.09 0.09 0.09 
0.1 0.1 0.1 0.1 0.1 0.1 0.1 0.1 0.1 0.1 0.1 0.1 0.1 0.1 0.1 0.1 0.1 0.1 0.1 0.1 0.1 0.1 0.1 0.1 0.1 0.1 0.1 0.1 0.1 0.1 0.1 0.1 0.1 0.1 0.1 0.1 0.1 0.1 0.1 0.1 
0.5 0.5 0.5 0.5 0.5 0.5 0.5 0.5 0.5 0.5 0.5 0.5 0.5 0.5 0.5 0.5 0.5 0.5 0.5 0.5 0.5 0.5 0.5 0.5 0.5 0.5 0.5 0.5 0.5 0.5 0.5 0.5 0.5 0.5 0.5 0.5 0.5 0.5 0.5 0.5 
1 1 1 1 1 1 1 1 1 1 1 1 1 1 1 1 1 1 1 1 1 1 1 1 1 1 1 1 1 1 1 1 1 1 1 1 1 1 1 1 
